\* Dreamteam *\
Maximize
OBJ: 8.76246210934 x_0 + 9.90334152483 x_1 + 41.7137160836 x_10
 + 10.8807947769 x_11 + 34.8736825624 x_12 + 14.2340206667 x_13
 + 1.0334839951 x_14 + 27.2654573346 x_15 + 4.64826575227 x_16
 + 65.8440769314 x_17 + 11.9530579465 x_18 + 25.7656890129 x_19
 + 33.253400718 x_2 + 9.57556498758 x_20 + 17.848348347 x_21
 - 1.05002440013 x_3 + 8.53475522986 x_4 + 5.4389711336 x_5
 + 7.37705643302 x_6 + 76.4530679812 x_7 + 29.659529651 x_8
 + 7.51481756857 x_9
Subject To
_C1: x_0 + x_12 + x_20 + x_8 >= 1
_C10: 8.5 x_0 + 8.5 x_1 + 9.5 x_10 + 10 x_11 + 9.5 x_12 + 9.5 x_13 + 8.5 x_14
 + 9 x_15 + 8.5 x_16 + 8.5 x_17 + 8.5 x_18 + 9 x_19 + 8 x_2 + 8.5 x_20
 + 8 x_21 + 8.5 x_3 + 9.5 x_4 + 8.5 x_5 + 10 x_6 + 8.5 x_7 + 8 x_8 + 8 x_9
 <= 100
_C11: x_0 + x_1 + x_10 + x_2 + x_3 + x_4 + x_5 + x_6 + x_7 + x_8 + x_9 <= 7
_C12: x_11 + x_12 + x_13 + x_14 + x_15 + x_16 + x_17 + x_18 + x_19 + x_20
 + x_21 <= 7
_C2: x_0 + x_12 + x_20 + x_8 <= 4
_C3: x_1 + x_11 + x_13 + x_17 + x_21 + x_6 >= 3
_C4: x_1 + x_11 + x_13 + x_17 + x_21 + x_6 <= 6
_C5: x_10 + x_16 + x_18 + x_4 >= 1
_C6: x_10 + x_16 + x_18 + x_4 <= 4
_C7: x_14 + x_15 + x_19 + x_2 + x_3 + x_5 + x_7 + x_9 >= 3
_C8: x_14 + x_15 + x_19 + x_2 + x_3 + x_5 + x_7 + x_9 <= 6
_C9: x_0 + x_1 + x_10 + x_11 + x_12 + x_13 + x_14 + x_15 + x_16 + x_17 + x_18
 + x_19 + x_2 + x_20 + x_21 + x_3 + x_4 + x_5 + x_6 + x_7 + x_8 + x_9 = 11
Binaries
x_0
x_1
x_10
x_11
x_12
x_13
x_14
x_15
x_16
x_17
x_18
x_19
x_2
x_20
x_21
x_3
x_4
x_5
x_6
x_7
x_8
x_9
End
